c 179_4_checker_5cl.cnf
c
c field = 179
c formula set type = 4_checker_5cl
c
p cnf 5 6
350 
352 
354 
358 
-348 
351 
353 
355 
359 
-349 
326 
386 
416 
446 
-296 
327 
387 
417 
447 
-297 
260 
292 
324 
388 
-228 
261 
293 
325 
389 
-229 
